LibMLKEM/why3-cvc5/mlkem-k_pke_keygen.adb_28_32_initialization_1.smt2
;; produced by cvc5.drv ;;
(set-logic ALL)
(set-info :smt-lib-version 2.6)
;;; generated by SMT-LIB2 driver
;;; SMT-LIB2 driver: bit-vectors, common part
;;; SMT-LIB2: integer arithmetic
;; "length"
(define-fun length ((x Int) (y Int)) Int
  (ite (<= x y) (+ (- y x) 1) 0))

;; "pow2"
(declare-fun pow2 (Int) Int)

(declare-const two_power_size_minus_one Int)

;; "two_power_size_minus_one_val"
(assert (= two_power_size_minus_one (pow2 (- 8 1))))

;; "min"
(define-fun min ((x Int) (y Int)) Int
  (ite (<= x y) x y))

;; "max"
(define-fun max ((x Int) (y Int)) Int
  (ite (<= x y) y x))

;; "Min_r"
(assert (forall ((x Int) (y Int)) (=> (<= y x) (= (min x y) y))))

;; "Max_l"
(assert (forall ((x Int) (y Int)) (=> (<= y x) (= (max x y) x))))

;; "Min_comm"
(assert (forall ((x Int) (y Int)) (= (min x y) (min y x))))

;; "Max_comm"
(assert (forall ((x Int) (y Int)) (= (max x y) (max y x))))

;; "Min_assoc"
(assert
  (forall ((x Int) (y Int) (z Int)) (= (min (min x y) z) (min x (min y z)))))

;; "Max_assoc"
(assert
  (forall ((x Int) (y Int) (z Int)) (= (max (max x y) z) (max x (max y z)))))

(declare-const two_power_size_minus_one1 Int)

;; "two_power_size_minus_one_val"
(assert (= two_power_size_minus_one1 (pow2 (- 16 1))))

(declare-sort t 0)

;; "in_range"
(define-fun in_range ((x (_ BitVec 16))) Bool
  (and (bvule #x0000 x) (bvule x #x0D00)))

;; "to_rep"
(declare-fun to_rep (t) (_ BitVec 16))

;; "of_rep"
(declare-fun of_rep ((_ BitVec 16)) t)

;; "inversion_axiom"
(assert
  (forall ((x t)) (! (= (of_rep (to_rep x)) x) :pattern ((to_rep x)) )))

;; "range_axiom"
(assert (forall ((x t)) (! (in_range (to_rep x)) :pattern ((to_rep x)) )))

;; "coerce_axiom"
(assert
  (forall ((x (_ BitVec 16)))
    (! (let ((y (bvurem x #x0D01)))
         (=> (in_range y) (= (to_rep (of_rep x)) y))) :pattern ((to_rep
                                                                  (of_rep x))) )))

(declare-sort map1 0)

;; "has_bounds"
(declare-fun has_bounds (map1
  Int
  Int) Bool)

(declare-sort map2 0)

;; "has_bounds"
(declare-fun has_bounds1 (map2
  Int
  Int) Bool)

;; "get"
(declare-fun get (map2
  Int) map1)

(declare-datatypes ((t__init_wrapper 0))
  (((t__init_wrapperqtmk (rec__value t)(us_attr__init Bool)))))

(declare-sort map3 0)

;; "has_bounds"
(declare-fun has_bounds2 (map3
  Int
  Int) Bool)

;; "get"
(declare-fun get1 (map3
  Int) t__init_wrapper)

;; "__is_initialized"
(define-fun us_is_initialized ((temp___expr_1111 map3)) Bool
  (forall ((temp___1112 Int))
    (=>
      (and (<= 0 temp___1112) (<= temp___1112 255))
      (= (us_attr__init (get1 temp___expr_1111 temp___1112)) true))))

(declare-sort map4 0)

;; "has_bounds"
(declare-fun has_bounds3 (map4
  Int
  Int) Bool)

;; "get"
(declare-fun get2 (map4
  Int) map3)

;; "dynamic_invariant"
(define-fun dynamic_invariant ((temp___expr_1123 map2) (temp___is_init_1119 Bool) (temp___skip_constant_1120 Bool) (temp___do_toplevel_1121 Bool) (temp___do_typ_inv_1122 Bool)) Bool
  (and
    (has_bounds1 temp___expr_1123 0 2)
    (forall ((temp___1124 Int))
      (=>
        (and (<= 0 temp___1124) (<= temp___1124 2))
        (has_bounds (get temp___expr_1123 temp___1124) 0 255)))))

;; "__is_initialized"
(define-fun us_is_initialized1 ((temp___expr_1134 map4)) Bool
  (forall ((temp___1135 Int))
    (=>
      (and (<= 0 temp___1135) (<= temp___1135 2))
      (us_is_initialized (get2 temp___expr_1134 temp___1135)))))

(declare-sort byte 0)

(declare-sort tinteger_32B 0)

;; "tinteger_32B'int"
(declare-fun tinteger_32Bqtint (tinteger_32B) Int)

;; "tinteger_32B'axiom"
(assert
  (forall ((i tinteger_32B))
    (and
      (<= (- 2147483648) (tinteger_32Bqtint i))
      (<= (tinteger_32Bqtint i) 2147483647))))

;; "in_range"
(define-fun in_range1 ((x Int)) Bool
  (and (<= (- 2147483648) x) (<= x 2147483647)))

;; "to_rep"
(define-fun to_rep1 ((x tinteger_32B)) Int
  (tinteger_32Bqtint x))

;; "of_rep"
(declare-fun of_rep1 (Int) tinteger_32B)

;; "inversion_axiom"
(assert
  (forall ((x tinteger_32B))
    (! (= (of_rep1 (to_rep1 x)) x) :pattern ((to_rep1 x)) )))

;; "range_axiom"
(assert
  (forall ((x tinteger_32B))
    (! (in_range1 (to_rep1 x)) :pattern ((to_rep1 x)) )))

;; "coerce_axiom"
(assert
  (forall ((x Int))
    (! (=> (in_range1 x) (= (to_rep1 (of_rep1 x)) x)) :pattern ((to_rep1
                                                                  (of_rep1 x))) )))

;; "in_range"
(define-fun in_range2 ((x Int)) Bool
  (and (<= 0 x) (<= x 2147483647)))

;; "to_rep"
(declare-fun to_rep2 (byte) (_ BitVec 8))

;; "of_rep"
(declare-fun of_rep2 ((_ BitVec 8)) byte)

;; "inversion_axiom"
(assert
  (forall ((x byte)) (! (= (of_rep2 (to_rep2 x)) x) :pattern ((to_rep2 x)) )))

;; "range_axiom"
(assert true)

;; "coerce_axiom"
(assert
  (forall ((x (_ BitVec 8)))
    (! (= (to_rep2 (of_rep2 x)) x) :pattern ((to_rep2 (of_rep2 x))) )))

(declare-sort map5 0)

;; "has_bounds"
(declare-fun has_bounds4 (map5
  Int
  Int) Bool)

;; "get"
(declare-fun get3 (map5
  Int) byte)

;; "slide"
(declare-fun slide (map5
  Int
  Int) map5)

;; "slide_eq"
(assert
  (forall ((a map5) (first Int))
    (! (= (slide a first first) a) :pattern ((slide a first first)) )))

;; "slide_def"
(assert
  (forall ((a map5) (old_first Int) (new_first Int))
    (! (and
         (forall ((i Int))
           (! (= (get3 (slide a old_first new_first) i) (get3
                                                          a
                                                          (- i (- new_first old_first)))) :pattern (
           (get3
             (slide a old_first new_first)
             i)) ))
         (forall ((new_last Int))
           (! (=>
                (has_bounds4
                  a
                  old_first
                  (- new_last (- new_first old_first)))
                (has_bounds4
                  (slide a old_first new_first)
                  new_first
                  new_last)) :pattern ((has_bounds4
                                         (slide a old_first new_first)
                                         new_first
                                         new_last)) ))) :pattern ((slide
                                                                    a
                                                                    old_first
                                                                    new_first)) )))

;; "slice"
(declare-fun slice (map5
  Int
  Int) map5)

;; "slice_eq"
(assert
  (forall ((a map5) (f Int) (l Int))
    (! (=> (has_bounds4 a f l) (= (slice a f l) a)) :pattern ((slice a f l)
    (has_bounds4 a f l)) )))

;; "slice_slice"
(assert
  (forall ((a map5) (f1 Int) (l1 Int) (f2 Int) (l2 Int))
    (! (=>
         (and (<= f1 f2) (<= l2 l1))
         (= (slice (slice a f1 l1) f2 l2) (slice a f2 l2))) :pattern (
    (slice
      (slice a f1 l1)
      f2
      l2)) )))

;; "slice_def"
(assert
  (forall ((a map5) (f Int) (l Int))
    (! (forall ((i Int))
         (! (=>
              (and (<= f i) (<= i l))
              (= (get3 (slice a f l) i) (get3 a i))) :pattern ((get3
                                                                 (slice
                                                                   a
                                                                   f
                                                                   l)
                                                                 i)) :pattern (
         (get3
           a
           i)) )) :pattern ((slice a f l)) )))

;; "slice_has_bounds"
(assert
  (forall ((a map5) (f Int) (l Int))
    (! (has_bounds4 (slice a f l) f l) :pattern ((has_bounds4
                                                   (slice a f l)
                                                   f
                                                   l)) )))

;; "concat_singleton_right"
(declare-fun concat_singleton_right (map5
  Int
  Int
  byte
  Int) map5)

;; "concat_singleton_right_def"
(assert
  (forall ((a map5) (b byte) (a_first Int) (a_last Int) (new_last Int))
    (! (and
         (=>
           (and (<= a_first a_last) (< a_last new_last))
           (=>
             (has_bounds4 a a_first a_last)
             (has_bounds4
               (concat_singleton_right a a_first a_last b new_last)
               a_first
               new_last)))
         (and
           (=>
             (< a_last (+ a_last 1))
             (= (get3
                  (concat_singleton_right a a_first a_last b new_last)
                  (+ a_last 1)) b))
           (forall ((i Int))
             (! (=>
                  (and (<= a_first i) (<= i a_last))
                  (= (get3
                       (concat_singleton_right a a_first a_last b new_last)
                       i) (get3 a i))) :pattern ((get3
                                                   (concat_singleton_right
                                                     a
                                                     a_first
                                                     a_last
                                                     b
                                                     new_last)
                                                   i)) :pattern ((get3 a i)) )))) :pattern (
    (concat_singleton_right
      a
      a_first
      a_last
      b
      new_last)) )))

(declare-datatypes ((t1 0))
  (((tqtmk (rec__first tinteger_32B)(rec__last tinteger_32B)))))

;; "mk"
(declare-fun mk (Int
  Int) t1)

;; "mk_def"
(assert
  (forall ((f Int) (l Int))
    (! (=>
         (in_range1 f)
         (=>
           (in_range1 l)
           (and
             (= (to_rep1 (rec__first (mk f l))) f)
             (= (to_rep1 (rec__last (mk f l))) l)))) :pattern ((mk f l)) )))

;; "dynamic_property"
(define-fun dynamic_property ((range_first Int) (range_last Int) (low Int) (high Int)) Bool
  (and
    (in_range1 low)
    (and
      (in_range1 high)
      (=> (<= low high) (and (in_range2 low) (in_range2 high))))))

(declare-datatypes ((us_t 0))
  (((us_tqtmk (elts map5)(rt t1)))))

;; "of_array"
(define-fun of_array ((a map5) (f Int) (l Int)) us_t
  (us_tqtmk a (mk f l)))

;; "first"
(define-fun first ((a us_t)) Int
  (to_rep1 (rec__first (rt a))))

;; "last"
(define-fun last ((a us_t)) Int
  (to_rep1 (rec__last (rt a))))

;; "well_formed"
(define-fun well_formed ((a us_t)) Bool
  (has_bounds4
    (elts a)
    (to_rep1 (rec__first (rt a)))
    (to_rep1 (rec__last (rt a)))))

;; "g"
(declare-fun g (us_t) map5)

;; "g__function_guard"
(declare-fun g__function_guard (map5
  us_t) Bool)

(declare-sort map6 0)

;; "has_bounds"
(declare-fun has_bounds5 (map6
  Int
  Int) Bool)

;; "get"
(declare-fun get4 (map6
  Int) map1)

(declare-sort map7 0)

;; "has_bounds"
(declare-fun has_bounds6 (map7
  Int
  Int) Bool)

;; "get"
(declare-fun get5 (map7
  Int) map2)

(declare-sort map8 0)

;; "has_bounds"
(declare-fun has_bounds7 (map8
  Int
  Int) Bool)

;; "get"
(declare-fun get6 (map8
  Int) map4)

;; "dynamic_invariant"
(define-fun dynamic_invariant1 ((temp___expr_1150 map7) (temp___is_init_1146 Bool) (temp___skip_constant_1147 Bool) (temp___do_toplevel_1148 Bool) (temp___do_typ_inv_1149 Bool)) Bool
  (and
    (has_bounds6 temp___expr_1150 0 2)
    (forall ((temp___1151 Int))
      (=>
        (and (<= 0 temp___1151) (<= temp___1151 2))
        (and
          (has_bounds1 (get5 temp___expr_1150 temp___1151) 0 2)
          (forall ((temp___1152 Int))
            (=>
              (and (<= 0 temp___1152) (<= temp___1152 2))
              (has_bounds
                (get (get5 temp___expr_1150 temp___1151) temp___1152)
                0
                255))))))))

;; "dynamic_invariant_r"
(define-fun dynamic_invariant_r ((temp___expr_1158 map8) (temp___is_init_1154 Bool) (temp___skip_constant_1155 Bool) (temp___do_toplevel_1156 Bool) (temp___do_typ_inv_1157 Bool)) Bool
  (and
    (has_bounds7 temp___expr_1158 0 2)
    (forall ((temp___1159 Int))
      (=>
        (and (<= 0 temp___1159) (<= temp___1159 2))
        (and
          (has_bounds3 (get6 temp___expr_1158 temp___1159) 0 2)
          (forall ((temp___1160 Int))
            (=>
              (and (<= 0 temp___1160) (<= temp___1160 2))
              (has_bounds2
                (get2 (get6 temp___expr_1158 temp___1159) temp___1160)
                0
                255))))))))

;; "__is_initialized"
(define-fun us_is_initialized2 ((temp___expr_1163 map8)) Bool
  (forall ((temp___1164 Int))
    (=>
      (and (<= 0 temp___1164) (<= temp___1164 2))
      (us_is_initialized1 (get6 temp___expr_1163 temp___1164)))))

;; "dynamic_invariant"
(define-fun dynamic_invariant2 ((temp___expr_1075 map6) (temp___is_init_1071 Bool) (temp___skip_constant_1072 Bool) (temp___do_toplevel_1073 Bool) (temp___do_typ_inv_1074 Bool)) Bool
  (and
    (has_bounds5 temp___expr_1075 0 2)
    (forall ((temp___1076 Int))
      (=>
        (and (<= 0 temp___1076) (<= temp___1076 2))
        (has_bounds (get4 temp___expr_1075 temp___1076) 0 255)))))

(declare-const random_d map5)

(declare-const d_hash map5)

(declare-const rho map5)

(declare-const sigma map5)

;; "dynamic_invariant"
(define-fun dynamic_invariant3 ((temp___expr_690 us_t) (temp___is_init_686 Bool) (temp___skip_constant_687 Bool) (temp___do_toplevel_688 Bool) (temp___do_typ_inv_689 Bool)) Bool
  (and
    (=>
      (not (= temp___skip_constant_687 true))
      (dynamic_property
        0
        2147483647
        (first temp___expr_690)
        (last temp___expr_690)))
    (well_formed temp___expr_690)))

;; "g__post_axiom"
(assert
  (forall ((param__c us_t))
    (! (=>
         (and
           (dynamic_invariant3 param__c true false true true)
           (and (= (first param__c) 0) (<= (last param__c) 2147483646)))
         (let ((result (g param__c)))
           (=> (g__function_guard result param__c) (has_bounds4 result 0 63)))) :pattern (
    (g
      param__c)) )))

;; Goal "def'vc"
;; File "mlkem.adb", line 1774, characters 0-0
(assert
  (not
  (forall ((a_hat map7) (s map6) (e map6) (s_hat map2) (e_hat map2) (t_hat map2) (ek map5) (dk map5))
    (=>
      (has_bounds4 random_d 0 31)
      (let ((o (- (+ 0 (+ (length 0 31) 1)) 1)))
        (=>
          (in_range2 o)
          (forall ((o1 byte))
            (=>
              (= (to_rep2 o1) #x03)
              (let ((o2 (of_array
                          (concat_singleton_right
                            random_d
                            0
                            31
                            o1
                            (+ 2147483647 1))
                          0
                          o)))
                (let ((mlkem__k_pke_keygen__d_hash__assume (g o2)))
                  (=>
                    (and
                      (g__function_guard
                        mlkem__k_pke_keygen__d_hash__assume
                        o2)
                      (has_bounds4 mlkem__k_pke_keygen__d_hash__assume 0 63))
                    (=>
                      (= mlkem__k_pke_keygen__d_hash__assume d_hash)
                      (=>
                        (has_bounds4 d_hash 0 63)
                        (=>
                          (=>
                            (<= 0 31)
                            (and
                              (and (<= 0 0) (<= 0 63))
                              (and (<= 0 31) (<= 31 63))))
                          (=>
                            (= (slice d_hash 0 31) rho)
                            (=>
                              (has_bounds4 rho 0 31)
                              (=>
                                (=>
                                  (<= 32 63)
                                  (and
                                    (and (<= 0 32) (<= 32 63))
                                    (and (<= 0 63) (<= 63 63))))
                                (=>
                                  (= (slide (slice d_hash 32 63) 32 0) 
                                  sigma)
                                  (=>
                                    (has_bounds4 sigma 0 31)
                                    (=>
                                      (dynamic_invariant1
                                        a_hat
                                        false
                                        false
                                        true
                                        true)
                                      (=>
                                        (dynamic_invariant2
                                          s
                                          false
                                          false
                                          true
                                          true)
                                        (=>
                                          (dynamic_invariant2
                                            e
                                            false
                                            false
                                            true
                                            true)
                                          (=>
                                            (dynamic_invariant
                                              s_hat
                                              false
                                              false
                                              true
                                              true)
                                            (=>
                                              (dynamic_invariant
                                                e_hat
                                                false
                                                false
                                                true
                                                true)
                                              (=>
                                                (dynamic_invariant
                                                  t_hat
                                                  false
                                                  false
                                                  true
                                                  true)
                                                (=>
                                                  (has_bounds4 ek 0 1183)
                                                  (=>
                                                    (has_bounds4 dk 0 1151)
                                                    (forall ((param__a_hat map8))
                                                      (=>
                                                        (and
                                                          (us_is_initialized2
                                                            param__a_hat)
                                                          (dynamic_invariant_r
                                                            param__a_hat
                                                            true
                                                            true
                                                            true
                                                            true))
                                                        (us_is_initialized2
                                                          param__a_hat))))))))))))))))))))))))))))))

(check-sat)
